# Survo puzzle 269/2012 (920) #443-74130
#    A  B  C  D
# 1  *  *  *  * 16
# 2  *  *  *  * 40
# 3  *  *  *  * 53
# 4  *  *  *  * 27
#   16 32 40 48
#

param r := 4;
param c := 4;

param rowsums :=
   1 16
   2 40
   3 53
   4 27
;

param colsums :=
   1 16
   2 32
   3 40
   4 48
;

param matrix: 1 2 3 4 5 6:=
   1  0 0 0 0 0 0
   2  0 0 0 0 0 0
   3  0 0 0 0 0 0
   4  0 0 0 0 0 0
;
